
        $ From http://www.csplib.org/Problems/prob009/data/helmut.pdf
        $ Problem number 99
        $ Sequence length : 25
        language ESSENCE' 1.0
        letting sizemaster be 338
        letting sizes be sequence(4,5,8,10,12,15,16,21,22,24,28,33,36,38,43,46,57,68,70,77,94,96,97,164,174)
        